20	38
0	9	74
0	11	21
0	16	48
1	6	10
1	10	25
1	17	68
1	19	32
2	3	22
2	5	83
2	13	70
3	4	52
3	6	35
3	14	74
4	12	11
4	15	0
4	16	17
5	8	81
5	14	2
5	15	92
6	11	86
6	19	60
7	9	42
7	10	18
7	14	34
8	12	83
8	14	27
8	17	91
9	10	56
9	14	3
9	19	37
10	15	39
11	17	17
11	18	2
11	19	47
12	13	68
12	16	60
12	17	34
13	16	56
